gurobi951/macos_universal2/examples/build/poolsearch_c++.lp
\ Model poolsearch_c++
\ LP format - for model browsing. Use MPS format to capture full model detail.
Maximize
  32 El0 + 32 El1 + 15 El2 + 15 El3 + 6 El4 + 6 El5 + El6 + El7 + El8 + El9
Subject To
 Budget: 16 El0 + 16 El1 + 8 El2 + 8 El3 + 4 El4 + 4 El5 + 2 El6 + 2 El7
   + El8 + El9 <= 33
Bounds
Binaries
 El0 El1 El2 El3 El4 El5 El6 El7 El8 El9
End
